
******************************************************************************
This program contains Ipopt, a library for large-scale nonlinear optimization.
 Ipopt is released as open source code under the Eclipse Public License (EPL).
         For more information visit http://projects.coin-or.org/Ipopt
******************************************************************************

This is Ipopt version 3.12.6, running with linear solver ma57.

Number of nonzeros in equality constraint Jacobian...:    30000
Number of nonzeros in inequality constraint Jacobian.:        0
Number of nonzeros in Lagrangian Hessian.............:    17509

Total number of variables............................:     7506
                     variables with only lower bounds:        1
                variables with lower and upper bounds:        0
                     variables with only upper bounds:        0
Total number of equality constraints.................:     5000
Total number of inequality constraints...............:        0
        inequality constraints with only lower bounds:        0
   inequality constraints with lower and upper bounds:        0
        inequality constraints with only upper bounds:        0

iter    objective    inf_pr   inf_du lg(mu)  ||d||  lg(rg) alpha_du alpha_pr  ls
   0  0.0000000e+00 4.02e+00 7.39e-05  -1.0 0.00e+00    -  0.00e+00 0.00e+00   0
   1  1.7104362e+03 1.98e+00 3.15e+02  -1.0 2.04e+00    -  1.00e+00 1.00e+00h  1
   2  3.5711089e+03 1.46e+00 1.21e+06  -1.0 2.43e+00   2.0 1.00e+00 1.00e+00h  1
   3  3.7759005e+03 1.15e+00 6.40e+06  -1.0 1.13e+00   4.2 1.00e+00 1.00e+00h  1
   4  3.7891603e+03 6.02e-01 1.72e+08  -1.0 1.02e+00   5.6 1.00e+00 1.00e+00h  1
   5  3.7916962e+03 6.68e-02 1.88e+07  -1.0 1.67e-01   6.0 1.00e+00 1.00e+00h  1
   6  3.7917342e+03 4.36e-04 4.43e+05  -1.0 1.92e-02   5.5 1.00e+00 1.00e+00h  1
   7  3.7916765e+03 1.02e-07 2.44e+02  -1.0 1.63e-04   5.0 1.00e+00 1.00e+00f  1
   8  3.7915028e+03 7.90e-08 4.72e+00  -1.0 1.31e-04   4.6 1.00e+00 1.00e+00f  1
   9  3.7909819e+03 7.13e-07 4.72e+00  -1.0 3.94e-04   4.1 1.00e+00 1.00e+00f  1
iter    objective    inf_pr   inf_du lg(mu)  ||d||  lg(rg) alpha_du alpha_pr  ls
  10  3.7894189e+03 6.45e-06 4.72e+00  -1.0 1.18e-03   3.6 1.00e+00 1.00e+00f  1
  11  3.7847285e+03 5.91e-05 4.71e+00  -1.0 3.54e-03   3.1 1.00e+00 1.00e+00f  1
  12  3.7706345e+03 5.73e-04 4.70e+00  -1.0 1.06e-02   2.6 1.00e+00 1.00e+00f  1
  13  3.7278491e+03 8.78e-03 1.77e+01  -1.0 3.38e-02   2.2 1.00e+00 1.00e+00f  1
  14  3.7110188e+03 4.88e-04 6.01e+01  -1.0 1.30e-02   2.6 1.00e+00 1.00e+00f  1
  15  3.6620628e+03 1.09e-02 1.21e+02  -1.0 3.87e-02   2.1 1.00e+00 1.00e+00f  1
  16  3.6425518e+03 5.28e-04 5.44e+01  -1.0 1.45e-02   2.5 1.00e+00 1.00e+00f  1
  17  3.5861329e+03 1.92e-02 1.39e+02  -1.0 5.28e-02   2.1 1.00e+00 1.00e+00f  1
  18  3.5637015e+03 6.03e-04 6.04e+01  -1.0 2.01e-02   2.5 1.00e+00 1.00e+00f  1
  19  3.4993047e+03 2.03e-02 9.34e+01  -1.0 5.52e-02   2.0 1.00e+00 1.00e+00f  1
iter    objective    inf_pr   inf_du lg(mu)  ||d||  lg(rg) alpha_du alpha_pr  ls
  20  3.4740826e+03 6.09e-04 6.33e+01  -1.0 1.95e-02   2.4 1.00e+00 1.00e+00f  1
  21  3.4017137e+03 9.80e-03 9.16e+01  -1.0 5.00e-02   2.0 1.00e+00 1.00e+00f  1
  22  3.3737928e+03 5.81e-04 5.91e+01  -1.0 2.08e-02   2.4 1.00e+00 1.00e+00f  1
  23  3.2936888e+03 8.53e-03 6.00e+01  -1.0 5.60e-02   1.9 1.00e+00 1.00e+00f  1
  24  3.2630456e+03 6.13e-04 5.90e+01  -1.0 2.28e-02   2.3 1.00e+00 1.00e+00f  1
  25  3.1754178e+03 6.76e-03 5.94e+01  -1.0 6.44e-02   1.9 1.00e+00 1.00e+00f  1
  26  3.1420515e+03 5.57e-04 5.83e+01  -1.0 2.51e-02   2.3 1.00e+00 1.00e+00f  1
  27  3.0471254e+03 1.86e-02 5.36e+01  -1.0 7.16e-02   1.8 1.00e+00 1.00e+00f  1
  28  3.0111647e+03 6.10e-04 3.56e+01  -1.0 2.73e-02   2.2 1.00e+00 1.00e+00f  1
  29  2.9097279e+03 9.27e-03 9.80e+01  -1.0 7.83e-02   1.8 1.00e+00 1.00e+00f  1
iter    objective    inf_pr   inf_du lg(mu)  ||d||  lg(rg) alpha_du alpha_pr  ls
  30  2.8716643e+03 8.14e-04 2.12e+01  -1.0 2.95e-02   2.2 1.00e+00 1.00e+00f  1
  31  2.7649433e+03 8.94e-03 2.70e+01  -1.0 8.46e-02   1.7 1.00e+00 1.00e+00f  1
  32  2.7253038e+03 1.36e-03 1.98e+01  -1.0 3.17e-02   2.1 1.00e+00 1.00e+00f  1
  33  2.6149167e+03 1.22e-02 2.61e+01  -1.0 9.06e-02   1.7 1.00e+00 1.00e+00f  1
  34  2.5742858e+03 1.56e-03 2.37e+01  -1.0 3.38e-02   2.1 1.00e+00 1.00e+00f  1
  35  2.4620669e+03 2.04e-02 4.63e+01  -1.0 9.61e-02   1.6 1.00e+00 1.00e+00f  1
  36  2.4210621e+03 1.26e-03 1.99e+01  -1.0 3.57e-02   2.0 1.00e+00 1.00e+00f  1
  37  2.3088954e+03 3.63e-02 3.13e+01  -1.0 1.01e-01   1.6 1.00e+00 1.00e+00f  1
  38  2.2682563e+03 1.91e-03 3.60e+00  -1.0 3.74e-02   2.0 1.00e+00 1.00e+00f  1
  39  2.1583037e+03 2.16e-01 2.95e+01  -1.0 1.45e-01   1.5 1.00e+00 1.00e+00f  1
iter    objective    inf_pr   inf_du lg(mu)  ||d||  lg(rg) alpha_du alpha_pr  ls
  40  2.1187821e+03 3.99e-02 1.75e+01  -1.0 6.91e-02   1.9 1.00e+00 1.00e+00f  1
  41  2.0129345e+03 7.42e-02 3.09e+00  -1.0 1.09e-01   1.5 1.00e+00 1.00e+00f  1
  42  1.9752400e+03 2.90e-03 2.44e+01  -1.0 4.00e-02   1.9 1.00e+00 1.00e+00f  1
  43  1.8757117e+03 1.78e-02 6.64e+01  -1.0 1.11e-01   1.4 1.00e+00 1.00e+00f  1
  44  1.6590716e+03 1.86e-01 2.15e+02  -1.0 2.90e-01   0.9 1.00e+00 1.00e+00f  1
  45  1.3266559e+03 2.68e+00 4.78e+03  -1.0 3.32e+00    -  1.00e+00 5.00e-01f  2
  46  1.2440923e+03 4.23e+00 1.20e+04  -1.0 2.22e+01   0.4 1.00e+00 2.50e-01f  3
  47  1.2189542e+03 8.34e-01 2.39e+03  -1.0 1.19e+00  -0.0 1.00e+00 1.00e+00f  1
  48  1.2016184e+03 3.67e-01 6.89e+02  -1.0 2.48e+00    -  1.00e+00 1.00e+00f  1
  49  1.2002905e+03 1.20e+00 8.66e+02  -1.0 8.89e+00    -  1.00e+00 1.00e+00h  1
iter    objective    inf_pr   inf_du lg(mu)  ||d||  lg(rg) alpha_du alpha_pr  ls
  50  1.1998653e+03 9.34e-01 1.94e+02  -1.0 3.34e+01    -  1.00e+00 5.00e-01h  2
  51  1.2023480e+03 2.95e-02 7.88e+02  -1.0 1.22e+00  -0.5 1.00e+00 1.00e+00h  1
  52  1.1997376e+03 3.66e-04 2.04e+02  -1.0 7.41e-01  -1.0 1.00e+00 1.00e+00h  1
  53  1.1987496e+03 1.14e+00 5.45e+01  -1.0 2.30e+02    -  1.00e+00 1.25e-01f  4
  54  1.1992494e+03 1.07e+00 3.67e+02  -1.0 2.10e+01  -1.5 1.00e+00 6.25e-02h  5
  55  1.1997643e+03 1.03e+00 5.83e+02  -1.0 3.53e+01  -1.9 1.00e+00 3.12e-02h  6
  56  1.1992588e+03 4.67e-02 2.06e+02  -1.0 2.88e+00  -2.4 1.00e+00 1.00e+00h  1
  57  1.1991938e+03 3.21e-03 1.66e+02  -1.0 3.27e+00  -2.9 1.00e+00 1.00e+00h  1
  58  1.1984388e+03 3.66e-01 1.04e+02  -1.0 2.87e+01  -3.4 1.00e+00 1.00e+00h  1
  59  1.1983599e+03 1.46e-01 3.26e+01  -1.0 4.08e+01    -  1.00e+00 1.00e+00h  1
iter    objective    inf_pr   inf_du lg(mu)  ||d||  lg(rg) alpha_du alpha_pr  ls
  60  1.1980600e+03 2.11e+00 2.16e+01  -1.0 1.50e+02    -  1.00e+00 1.00e+00h  1
  61  1.1982153e+03 1.09e-03 9.63e-01  -1.0 1.48e-01  -1.1 1.00e+00 1.00e+00h  1
  62  1.1981355e+03 5.05e-01 8.74e+01  -1.7 1.43e+02    -  1.00e+00 1.00e+00h  1
  63  1.1980967e+03 6.51e-01 1.77e+02  -1.7 3.58e+02    -  1.00e+00 1.00e+00h  1
  64  1.1980832e+03 8.25e-01 1.72e+03  -1.7 8.17e+02    -  1.00e+00 1.00e+00h  1
  65  1.1980874e+03 5.23e-05 8.46e-01  -1.7 1.02e-01  -1.6 1.00e+00 1.00e+00h  1
  66  1.1980733e+03 4.85e-01 2.12e+02  -1.7 7.82e+02    -  1.00e+00 1.00e+00h  1
  67  1.1980660e+03 6.68e-01 9.82e+01  -1.7 1.98e+03    -  1.00e+00 1.00e+00h  1
  68  1.1980636e+03 5.71e-01 2.20e+03  -1.7 4.06e+03    -  1.00e+00 1.00e+00h  1
  69  1.1980627e+03 9.83e-01 1.87e+03  -1.7 4.03e+04    -  1.00e+00 1.25e-01h  4
iter    objective    inf_pr   inf_du lg(mu)  ||d||  lg(rg) alpha_du alpha_pr  ls
  70  1.1980591e+03 2.06e+01 1.22e+05  -1.7 2.40e+05    -  1.00e+00 2.50e-01h  3
  71  1.1980600e+03 4.18e-05 1.84e+00  -1.7 5.48e-02  -2.1 1.00e+00 1.00e+00h  1
  72  1.1980596e+03 5.17e-01 8.95e+02  -1.7 3.66e+04    -  1.00e+00 1.00e+00h  1
  73  1.1980595e+03 6.49e-01 1.25e+02  -1.7 9.16e+04    -  1.00e+00 1.00e+00h  1
  74  1.1980594e+03 6.56e-01 7.11e+03  -1.7 1.92e+05    -  1.00e+00 1.00e+00h  1
  75  1.1980594e+03 1.36e+00 7.74e+04  -1.7 4.93e+05    -  1.00e+00 1.00e+00h  1
  76  1.1980594e+03 1.96e-08 3.75e-03  -1.7 1.54e-04  -2.6 1.00e+00 1.00e+00h  1
  77  1.1980594e+03 4.16e-01 1.07e+04  -3.8 3.86e+05    -  1.00e+00 1.00e+00h  1
  78  1.1980594e+03 9.50e-01 4.35e+03  -3.8 1.09e+06    -  1.00e+00 1.00e+00h  1
  79  1.1980594e+03 3.45e-08 6.81e-05  -3.8 5.21e-05  -3.0 1.00e+00 1.00e+00h  1
iter    objective    inf_pr   inf_du lg(mu)  ||d||  lg(rg) alpha_du alpha_pr  ls
  80  1.1980594e+03 4.54e-01 1.38e+04  -5.7 1.09e+06    -  1.00e+00 1.00e+00h  1
  81  1.1980594e+03 8.04e-01 7.27e+02  -5.7 2.90e+06    -  1.00e+00 1.00e+00h  1
  82  1.1980594e+03 3.96e-01 2.35e+05  -5.7 5.91e+06    -  1.00e+00 1.00e+00h  1
  83  1.1980594e+03 1.35e-07 2.61e-04  -5.7 1.64e-05  -3.5 1.00e+00 1.00e+00h  1
  84  1.1980593e+03 6.64e-02 5.91e+04  -5.7 5.75e+06    -  1.00e+00 1.00e+00H  1
  85  1.1980593e+03 3.10e-01 1.51e+05  -5.7 1.83e+07    -  1.00e+00 1.00e+00H  1
  86  1.1980593e+03 2.96e-01 1.21e+05  -5.7 4.55e+07    -  1.00e+00 1.25e-01h  4
  87  1.1980593e+03 2.94e-01 6.03e+04  -5.7 4.45e+07    -  1.00e+00 2.50e-01h  3
  88  1.1980593e+03 2.05e-01 2.15e+05  -5.7 4.66e+07    -  1.00e+00 1.00e+00H  1
  89  1.1980593e+03 8.32e-02 8.01e+05  -5.7 1.12e+08    -  1.00e+00 1.00e+00H  1
iter    objective    inf_pr   inf_du lg(mu)  ||d||  lg(rg) alpha_du alpha_pr  ls
  90  1.1980593e+03 2.22e-02 7.28e+05  -5.7 1.08e+08    -  1.00e+00 1.00e+00H  1
  91  1.1980593e+03 3.79e-02 6.17e+05  -5.7 3.25e+08    -  1.00e+00 1.25e-01h  4
  92  1.1980593e+03 3.90e-02 5.75e+05  -5.7 3.23e+08    -  1.00e+00 6.25e-02h  5
  93  1.1980593e+03 2.09e-02 1.09e+06  -5.7 3.27e+08    -  1.00e+00 1.00e+00H  1
  94  1.1980593e+03 1.01e-05 8.75e-07  -5.7 1.06e-06  -4.0 1.00e+00 1.00e+00h  1
  95  1.1980593e+03 5.55e-01 6.70e+04  -8.6 4.29e+08    -  1.00e+00 1.00e+00h  1
  96  1.1980593e+03 4.19e-01 1.24e+04  -8.6 1.06e+09    -  1.00e+00 5.00e-01h  2
  97  1.1980593e+03 2.16e-05 9.05e-08  -8.6 4.25e-08  -4.5 1.00e+00 1.00e+00h  1
  98  1.1980593e+03 1.98e-05 1.61e-09  -8.6 6.77e-08  -5.0 1.00e+00 1.00e+00h  1
  99  1.1980593e+03 2.47e-05 6.17e-10  -8.6 1.86e-07  -5.4 1.00e+00 1.00e+00H  1
iter    objective    inf_pr   inf_du lg(mu)  ||d||  lg(rg) alpha_du alpha_pr  ls
 100  1.1980593e+03 2.26e-05 1.12e-09  -8.6 5.86e-07  -5.9 1.00e+00 5.00e-01h  2
